db/data/30058468912190134233134222289134933941.z3.out
-------------------
2500.101097647
